(set-logic ALL)
(declare-fun i1 () Int)
(declare-fun it732 () Int)
(declare-fun it15 () Int)
(declare-fun it733 () Int)
(declare-fun it734 () Int)
(declare-fun it14 () Int)
(declare-fun it735 () Int)
(declare-fun it13 () Int)
(declare-fun bt821 () Bool)
(declare-fun bt822 () Bool)
(declare-fun bt823 () Bool)
(declare-fun bt824 () Bool)
(declare-fun it17 () Int)
(declare-fun it16 () Int)
(declare-fun it18 () Int)
(declare-fun bt25 () Bool)
(declare-fun bt28 () Bool)
(declare-fun bt26 () Bool)
(declare-fun bt27 () Bool)
(declare-fun it739 () Int)
(declare-fun it740 () Int)
(declare-fun it741 () Int)
(declare-fun it742 () Int)
(declare-fun bt825 () Bool)
(declare-fun bt826 () Bool)
(declare-fun bt827 () Bool)
(declare-fun bt828 () Bool)
(declare-fun bt830 () Bool)
(declare-fun bt829 () Bool)
(declare-fun it743 () Int)
(declare-fun bt831 () Bool)
(declare-fun it744 () Int)
(declare-fun it745 () Int)
(declare-fun bt832 () Bool)
(declare-fun it746 () Int)
(declare-fun it747 () Int)
(declare-fun it748 () Int)
(declare-fun it749 () Int)
(declare-fun bt833 () Bool)
(declare-fun bt834 () Bool)
(declare-fun bt835 () Bool)
(declare-fun bt836 () Bool)
(declare-fun it752 () Int)
(declare-fun bt839 () Bool)
(declare-fun it751 () Int)
(declare-fun bt837 () Bool)
(declare-fun bt840 () Bool)
(declare-fun bt838 () Bool)
(declare-fun it750 () Int)
(declare-fun it777 () Int)
(declare-fun it778 () Int)
(declare-fun it779 () Int)
(declare-fun it780 () Int)
(declare-fun bt865 () Bool)
(declare-fun bt866 () Bool)
(declare-fun bt867 () Bool)
(declare-fun bt868 () Bool)
(declare-fun it782 () Int)
(declare-fun bt871 () Bool)
(declare-fun bt872 () Bool)
(declare-fun it783 () Int)
(declare-fun it781 () Int)
(declare-fun bt870 () Bool)
(declare-fun bt869 () Bool)
(declare-fun it785 () Int)
(declare-fun it786 () Int)
(declare-fun it787 () Int)
(declare-fun it788 () Int)
(declare-fun bt873 () Bool)
(declare-fun bt874 () Bool)
(declare-fun bt875 () Bool)
(declare-fun bt876 () Bool)
(declare-fun it789 () Int)
(declare-fun bt878 () Bool)
(declare-fun bt880 () Bool)
(declare-fun bt877 () Bool)
(declare-fun bt879 () Bool)
(declare-fun it791 () Int)
(declare-fun it790 () Int)
(declare-fun it792 () Int)
(declare-fun it793 () Int)
(declare-fun it794 () Int)
(declare-fun it795 () Int)
(declare-fun bt881 () Bool)
(declare-fun bt882 () Bool)
(declare-fun bt883 () Bool)
(declare-fun bt884 () Bool)
(declare-fun it155 () Int)
(assert (= (+ i1 (- 1)) 0))
(assert (= (+ it732 (- 2)) 0))
(assert (= (+ it733 (* it15 (- 1))) 0))
(assert (= (+ (* it14 (- 1)) it734) 0))
(assert (= (+ (* it13 (- 1)) it735) 0))
(assert (or (not bt821) (and false bt821)))
(assert (or bt822 (and false (not bt822))))
(assert (or (not bt823) (and false bt823)))
(assert (or (not bt824) (and false bt824)))
(assert (and bt27
     (not bt26)
     (not bt28)
     (not bt25)
     (= (+ it18 (- 1)) 0)
     (not bt823)
     (= (+ (* it16 (- 1)) it735) 0)
     (not bt821)
     (= (+ it732 (- 2)) 0)
     (= (+ (* it17 (- 1)) it734) 0)
     bt822
     (not bt824)))
(assert (= (+ it739 (- 2)) 0))
(assert (= (+ (* it18 (- 1)) it740) 0))
(assert (= (+ it741 (* it17 (- 1))) 0))
(assert (= (+ (* it16 (- 1)) it742) 0))
(assert (or (and (not bt27) (not bt825)) (and bt27 bt825)))
(assert (or (and (not bt28) (not bt826)) (and bt28 bt826)))
(assert (or (and bt26 bt827) (and (not bt26) (not bt827))))
(assert (or (and bt25 bt828) (and (not bt25) (not bt828))))
(assert (and (> (+ it742 (* it740 (- 1))) 0)
     (not bt832)
     (not bt827)
     (not bt828)
     (= (+ (* it745 (- 1)) it742) 0)
     bt825
     (not bt826)
     (= (+ (* it744 (- 1)) it741) 0)
     (not bt831)
     (= (+ (* it743 (- 1)) it740) 0)
     (= (+ it739 (- 2)) 0)
     bt829
     bt830))
(assert (= (+ it746 (- 2)) 0))
(assert (= (+ (* it743 (- 1)) it747) 0))
(assert (= (+ (* it744 (- 1)) it748) 0))
(assert (= (+ (* it745 (- 1)) it749) 0))
(assert (or (and (not bt830) (not bt833)) (and bt833 bt830)))
(assert (or (and (not bt829) (not bt834)) (and bt834 bt829)))
(assert (or (and bt835 bt831) (and (not bt831) (not bt835))))
(assert (or (and (not bt832) (not bt836)) (and bt836 bt832)))
(assert (and (= (+ (* it750 (- 1)) it747) 0)
     (<= it748 0)
     bt838
     (= (+ it746 (- 2)) 0)
     (not bt840)
     bt834
     (not bt837)
     (= (+ (* it751 (- 1)) it748) 0)
     bt839
     bt833
     (= (+ (* it752 (- 1)) it749) 0)
     (not bt835)
     (not bt836)))
(assert (= (+ it777 (- 2)) 0))
(assert (= (+ it778 (* it750 (- 1))) 0))
(assert (= (+ (* it751 (- 1)) it779) 0))
(assert (= (+ it780 (* it752 (- 1))) 0))
(assert (or (and bt838 bt865) (and (not bt865) (not bt838))))
(assert (or (and (not bt837) (not bt866)) (and bt837 bt866)))
(assert (or (and (not bt867) (not bt839)) (and bt867 bt839)))
(assert (or (and (not bt840) (not bt868)) (and bt868 bt840)))
(assert (and bt869
     bt870
     (= (+ (* it778 3) (* it781 (- 1))) 0)
     (not bt866)
     (= (+ it780 (* it783 (- 1))) 0)
     bt867
     (not bt872)
     bt865
     bt871
     (= (+ (* it782 (- 1)) it779) 0)
     (= (+ it777 (- 2)) 0)))
(assert (= (+ it785 (- 2)) 0))
(assert (= (+ it786 (* it781 (- 1))) 0))
(assert (= (+ (* it782 (- 1)) it787) 0))
(assert (= (+ (* it783 (- 1)) it788) 0))
(assert (or (and (not bt873) (not bt870)) (and bt870 bt873)))
(assert (or (and (not bt869) (not bt874)) (and bt869 bt874)))
(assert (or (and bt871 bt875) (and (not bt875) (not bt871))))
(assert (or (and bt872 bt876) (and (not bt876) (not bt872))))
(assert (and (= (+ (* it790 (- 1)) it787) 0)
     (= (+ (* it791 (- 1)) it788) 0)
     bt879
     bt877
     (= (+ it785 (- 2)) 0)
     (not bt880)
     bt874
     bt875
     (not bt878)
     (= (+ (* it789 (- 1)) it786) 0)
     bt873))
(assert (= (+ it792 (- 2)) 0))
(assert (= (+ (* it789 (- 1)) it793) 0))
(assert (= (+ (* it790 (- 1)) it794) 0))
(assert (= (+ it795 (* it791 (- 1))) 0))
(assert (or (and bt881 bt878) (and (not bt881) (not bt878))))
(assert (or (and bt877 bt882) (and (not bt877) (not bt882))))
(assert (or (and bt879 bt883) (and (not bt879) (not bt883))))
(assert (or (and bt880 bt884) (and (not bt884) (not bt880))))
(assert (let ((a!1 (+ (+ 0 it795)
              (* (+ 0 it793) (exp 2 (+ it155 (- 1))) (+ 0 (- 1))))))
  (and (> a!1 (+ 0 0))
       bt881
       (>= (+ it792 (- 2)) 0)
       (not bt883)
       (not bt884)
       (> (+ it795 (* it793 (- 1))) 0)
       (> it794 0)
       (not bt882)
       (>= (+ (* it792 (- 1)) 2) 0)
       (>= (+ it155 (- 1)) 0))))
(check-sat)
